p cnf 49 151
1 2 3 4 5 0
-9 -19 0
-9 -21 0
-9 -27 0
-9 -39 0
-9 -44 0
-19 -21 0
-19 -27 0
-19 -39 0
-19 -44 0
-21 -27 0
-21 -39 0
-21 -44 0
-27 -39 0
-27 -44 0
-39 -44 0
-1 -6 0
-1 -10 0
-1 -20 0
-1 -22 0
-1 -33 0
-1 -45 0
-6 -10 0
-6 -20 0
-6 -22 0
-6 -33 0
-6 -45 0
-10 -20 0
-10 -22 0
-10 -33 0
-10 -45 0
-20 -22 0
-20 -33 0
-20 -45 0
-22 -33 0
-22 -45 0
-33 -45 0
-2 -11 0
-2 -15 0
-2 -23 0
-2 -28 0
-2 -34 0
-2 -46 0
-11 -15 0
-11 -23 0
-11 -28 0
-11 -34 0
-11 -46 0
-15 -23 0
-15 -28 0
-15 -34 0
-15 -46 0
-23 -28 0
-23 -34 0
-23 -46 0
-28 -34 0
-28 -46 0
-34 -46 0
-7 -12 0
-7 -16 0
-7 -29 0
-7 -35 0
-7 -40 0
-7 -47 0
-12 -16 0
-12 -29 0
-12 -35 0
-12 -40 0
-12 -47 0
-16 -29 0
-16 -35 0
-16 -40 0
-16 -47 0
-29 -35 0
-29 -40 0
-29 -47 0
-35 -40 0
-35 -47 0
-40 -47 0
-3 -13 0
-3 -24 0
-3 -30 0
-3 -36 0
-3 -41 0
-13 -24 0
-13 -30 0
-13 -36 0
-13 -41 0
-24 -30 0
-24 -36 0
-24 -41 0
-30 -36 0
-30 -41 0
-36 -41 0
-4 -17 0
-4 -25 0
-4 -31 0
-4 -37 0
-4 -42 0
-4 -48 0
-17 -25 0
-17 -31 0
-17 -37 0
-17 -42 0
-17 -48 0
-25 -31 0
-25 -37 0
-25 -42 0
-25 -48 0
-31 -37 0
-31 -42 0
-31 -48 0
-37 -42 0
-37 -48 0
-42 -48 0
-5 -8 0
-5 -14 0
-5 -18 0
-5 -26 0
-5 -32 0
-5 -38 0
-5 -43 0
-5 -49 0
-8 -14 0
-8 -18 0
-8 -26 0
-8 -32 0
-8 -38 0
-8 -43 0
-8 -49 0
-14 -18 0
-14 -26 0
-14 -32 0
-14 -38 0
-14 -43 0
-14 -49 0
-18 -26 0
-18 -32 0
-18 -38 0
-18 -43 0
-18 -49 0
-26 -32 0
-26 -38 0
-26 -43 0
-26 -49 0
-32 -38 0
-32 -43 0
-32 -49 0
-38 -43 0
-38 -49 0
-43 -49 0
